
Gurobi 9.5.0 (mac64[arm], gurobi_cl) logging started Wed Feb  2 22:36:27 2022

Set parameter Username
Set parameter LogFile to value "gurobi.log"
Academic license - for non-commercial use only - expires 2022-03-23
Using license file /Users/lianmeng/gurobi.lic
